(set-info :source |printed by MathSAT|)
(declare-fun |.x{4}| () (Array Int Int))
(declare-fun |.x{7}| () (Array Int Int))
(declare-fun |.x{5}| () Int)
(declare-fun |.x{8}| () Int)
(declare-fun |.x{6}| () Int)
(declare-fun |.x{9}| () Int)
(declare-fun |.x{13}| () Int)
(define-fun .def_12 () Int (! |.x{6}| :next |.x{9}|))
(define-fun .def_10 () Int (! |.x{5}| :next |.x{8}|))
(define-fun .def_29 () Bool (! (= .def_10 .def_12) :init true))
(define-fun .def_8 () (Array Int Int) (! |.x{4}| :next |.x{7}|))
(define-fun .def_19 () Int (select .def_8 .def_10))
(define-fun .def_20 () Int (select .def_8 .def_12))
(define-fun .def_21 () (Array Int Int) (store .def_8 .def_10 .def_20))
(define-fun .def_22 () (Array Int Int) (store .def_21 .def_12 .def_19))
(define-fun .def_23 () Bool (<= .def_20 .def_19))
(define-fun .def_24 () Bool (not .def_23))
(define-fun .def_25 () (Array Int Int) (ite .def_24 .def_22 .def_8))
(define-fun .def_26 () Bool (= |.x{7}| .def_25))
(define-fun .def_16 () Int (* (- 1) |.x{8}|))
(define-fun .def_17 () Int (+ .def_10 .def_16))
(define-fun .def_18 () Bool (= .def_17 (- 1)))
(define-fun .def_27 () Bool (and .def_18 .def_26))
(define-fun .def_14 () Bool (= .def_12 |.x{9}|))
(define-fun .def_28 () Bool (! (and .def_14 .def_27) :trans true))
(define-fun .def_30 () Int (! |.x{13}| :next |.xpv{1}|))
(define-fun .def_35 () Bool (<= .def_10 .def_30))
(define-fun .def_36 () Bool (not .def_35))
(define-fun .def_33 () Bool (<= .def_30 .def_12))
(define-fun .def_34 () Bool (not .def_33))
(define-fun .def_37 () Bool (and .def_34 .def_36))
(define-fun .def_31 () Int (select .def_8 .def_30))
(define-fun .def_32 () Bool (<= .def_31 .def_20))
(define-fun .def_38 () Bool (and .def_32 .def_37))
(define-fun .def_40 () Bool (! (not .def_38) :invar-property 0))
(assert true)
